\ENCODING=ISO-8859-1
\Problem name: ilog.cplex

Maximize
 obj: 851 x(0)#0 + 727 x(1)#1 + 473 x(2)#2 + 964 x(3)#3 + 772 x(4)#4
      + 607 x(5)#5 + 852 x(6)#6 + 850 x(7)#7 + 521 x(8)#8 + 855 x(9)#9
      + 1121 x(10)#10 + 670 x(11)#11 + 1114 x(12)#12 + 874 x(13)#13
      + 1035 x(14)#14 + 919 x(15)#15 + 643 x(16)#16 + 934 x(17)#17
      + 733 x(18)#18 + 919 x(19)#19 + 611 x(20)#20 + 458 x(21)#21
      + 688 x(22)#22 + 880 x(23)#23 + 618 x(24)#24 + 895 x(25)#25
      + 858 x(26)#26 + 653 x(27)#27 + 777 x(28)#28 + 522 x(29)#29
      + 684 x(30)#30 + 412 x(31)#31 + 527 x(32)#32 + 876 x(33)#33
      + 615 x(34)#34 + 879 x(35)#35 + 870 x(36)#36 + 977 x(37)#37
      + 648 x(38)#38 + 742 x(39)#39 + 416 x(40)#40 + 792 x(41)#41
      + 579 x(42)#42 + 943 x(43)#43 + 794 x(44)#44 + 832 x(45)#45
      + 810 x(46)#46 + 651 x(47)#47 + 799 x(48)#48 + 786 x(49)#49
      + 1015 x(50)#50 + 696 x(51)#51 + 800 x(52)#52 + 601 x(53)#53
      + 744 x(54)#54 + 674 x(55)#55 + 912 x(56)#56 + 977 x(57)#57
      + 614 x(58)#58 + 762 x(59)#59 + 470 x(60)#60 + 745 x(61)#61
      + 574 x(62)#62 + 648 x(63)#63 + 807 x(64)#64 + 903 x(65)#65
      + 678 x(66)#66 + 1092 x(67)#67 + 651 x(68)#68 + 700 x(69)#69
      + 471 x(70)#70 + 826 x(71)#71 + 535 x(72)#72 + 586 x(73)#73
      + 675 x(74)#74 + 853 x(75)#75 + 599 x(76)#76 + 930 x(77)#77
      + 589 x(78)#78 + 620 x(79)#79 + 832 x(80)#80 + 825 x(81)#81
      + 498 x(82)#82 + 720 x(83)#83 + 936 x(84)#84 + 712 x(85)#85
      + 762 x(86)#86 + 858 x(87)#87 + 773 x(88)#88 + 689 x(89)#89
      + 901 x(90)#90 + 873 x(91)#91 + 321 x(92)#92 + 582 x(93)#93
      + 529 x(94)#94 + 535 x(95)#95 + 609 x(96)#96 + 529 x(97)#97
      + 744 x(98)#98 + 972 x(99)#99
Subject To
 c1:  867 x(0)#0 + 10 x(1)#1 + 395 x(2)#2 + 982 x(3)#3 + 889 x(4)#4
      + 789 x(5)#5 + 495 x(6)#6 + 725 x(7)#7 + 807 x(8)#8 + 287 x(9)#9
      + 588 x(10)#10 + 462 x(11)#11 + 856 x(12)#12 + 980 x(13)#13
      + 678 x(14)#14 + 987 x(15)#15 + 160 x(16)#16 + 368 x(17)#17
      + 197 x(18)#18 + 8 x(19)#19 + 411 x(20)#20 + 887 x(21)#21 + 671 x(22)#22
      + 544 x(23)#23 + 301 x(24)#24 + 868 x(25)#25 + 846 x(26)#26 + 99 x(27)#27
      + 681 x(28)#28 + 466 x(29)#29 + 506 x(30)#30 + 537 x(31)#31 + 78 x(32)#32
      + 820 x(33)#33 + 125 x(34)#34 + 589 x(35)#35 + 100 x(36)#36
      + 366 x(37)#37 + 521 x(38)#38 + 810 x(39)#39 + 330 x(40)#40
      + 632 x(41)#41 + 857 x(42)#42 + 718 x(43)#43 + 326 x(44)#44
      + 453 x(45)#45 + 26 x(46)#46 + 649 x(47)#47 + 337 x(48)#48 + 7 x(49)#49
      + 216 x(50)#50 + 355 x(51)#51 + 200 x(52)#52 + 376 x(53)#53
      + 239 x(54)#54 + 969 x(55)#55 + 770 x(56)#56 + 481 x(57)#57
      + 264 x(58)#58 + 894 x(59)#59 + 618 x(60)#60 + 667 x(61)#61
      + 136 x(62)#62 + 473 x(63)#63 + 860 x(64)#64 + 919 x(65)#65
      + 487 x(66)#66 + 994 x(67)#67 + 232 x(68)#68 + 198 x(69)#69
      + 117 x(70)#70 + 500 x(71)#71 + 160 x(72)#72 + 159 x(73)#73 + 69 x(74)#74
      + 594 x(75)#75 + 656 x(76)#76 + 76 x(77)#77 + 511 x(78)#78 + 65 x(79)#79
      + 138 x(80)#80 + 715 x(81)#81 + 766 x(82)#82 + 921 x(83)#83
      + 519 x(84)#84 + 301 x(85)#85 + 902 x(86)#86 + 818 x(87)#87
      + 366 x(88)#88 + 529 x(89)#89 + 227 x(90)#90 + 312 x(91)#91
      + 172 x(92)#92 + 934 x(93)#93 + 354 x(94)#94 + 519 x(95)#95
      + 911 x(96)#96 + 250 x(97)#97 + 672 x(98)#98 + 646 x(99)#99 <= 12580
 c2:  314 x(0)#0 + 862 x(1)#1 + 12 x(2)#2 + 411 x(3)#3 + 31 x(4)#4 + 797 x(5)#5
      + 94 x(6)#6 + 513 x(7)#7 + 512 x(8)#8 + 544 x(9)#9 + 756 x(10)#10
      + 36 x(11)#11 + 988 x(12)#12 + 980 x(13)#13 + 672 x(14)#14 + 680 x(15)#15
      + 706 x(16)#16 + 822 x(17)#17 + 827 x(18)#18 + 813 x(19)#19
      + 167 x(20)#20 + 331 x(21)#21 + 320 x(22)#22 + 227 x(23)#23
      + 463 x(24)#24 + 466 x(25)#25 + 144 x(26)#26 + 197 x(27)#27
      + 309 x(28)#28 + 238 x(29)#29 + 137 x(30)#30 + 279 x(31)#31
      + 755 x(32)#32 + 333 x(33)#33 + 510 x(34)#34 + 671 x(35)#35
      + 905 x(36)#36 + 954 x(37)#37 + 533 x(38)#38 + 29 x(39)#39 + 933 x(40)#40
      + 186 x(41)#41 + 338 x(42)#42 + 801 x(43)#43 + 694 x(44)#44
      + 768 x(45)#45 + 790 x(46)#46 + 969 x(47)#47 + 704 x(48)#48
      + 962 x(49)#49 + 527 x(50)#50 + 184 x(51)#51 + 479 x(52)#52
      + 456 x(53)#53 + 927 x(54)#54 + 333 x(55)#55 + 380 x(56)#56
      + 559 x(57)#57 + 836 x(58)#58 + 537 x(59)#59 + 128 x(60)#60
      + 930 x(61)#61 + 602 x(62)#62 + 294 x(63)#63 + 36 x(64)#64 + 755 x(65)#65
      + 866 x(66)#66 + 79 x(67)#67 + 892 x(68)#68 + 893 x(69)#69 + 17 x(70)#70
      + 212 x(71)#71 + 727 x(72)#72 + 337 x(73)#73 + 873 x(74)#74
      + 114 x(75)#75 + 288 x(76)#76 + 602 x(77)#77 + 704 x(78)#78
      + 948 x(79)#79 + 761 x(80)#80 + 217 x(81)#81 + 162 x(82)#82
      + 908 x(83)#83 + 292 x(84)#84 + 559 x(85)#85 + 927 x(86)#86
      + 920 x(87)#87 + 186 x(88)#88 + 446 x(89)#89 + 404 x(90)#90
      + 244 x(91)#91 + 127 x(92)#92 + 86 x(93)#93 + 514 x(94)#94 + 683 x(95)#95
      + 172 x(96)#96 + 673 x(97)#97 + 913 x(98)#98 + 485 x(99)#99 <= 12919
 c3:  98 x(0)#0 + 126 x(1)#1 + 675 x(2)#2 + 335 x(3)#3 + 543 x(4)#4
      + 894 x(5)#5 + 928 x(6)#6 + 934 x(7)#7 + 26 x(8)#8 + 551 x(9)#9
      + 493 x(10)#10 + 673 x(11)#11 + 430 x(12)#12 + 715 x(13)#13
      + 771 x(14)#14 + 865 x(15)#15 + 520 x(16)#16 + 544 x(17)#17
      + 697 x(18)#18 + 634 x(19)#19 + 681 x(20)#20 + 62 x(21)#21 + 473 x(22)#22
      + 766 x(23)#23 + 987 x(24)#24 + 323 x(25)#25 + 891 x(26)#26
      + 494 x(27)#27 + 787 x(28)#28 + 335 x(29)#29 + 131 x(30)#30
      + 408 x(31)#31 + 546 x(32)#32 + 718 x(33)#33 + 131 x(34)#34
      + 191 x(35)#35 + 99 x(36)#36 + 224 x(37)#37 + 185 x(38)#38 + 197 x(39)#39
      + 549 x(40)#40 + 705 x(41)#41 + 38 x(42)#42 + 256 x(43)#43 + 870 x(44)#44
      + 290 x(45)#45 + 812 x(46)#46 + 984 x(47)#47 + 299 x(48)#48
      + 636 x(49)#49 + 108 x(50)#50 + 716 x(51)#51 + 737 x(52)#52
      + 672 x(53)#53 + 778 x(54)#54 + 528 x(55)#55 + 610 x(56)#56
      + 737 x(57)#57 + 938 x(58)#58 + 439 x(59)#59 + 273 x(60)#60 + 83 x(61)#61
      + 648 x(62)#62 + 112 x(63)#63 + 717 x(64)#64 + 516 x(65)#65 + 40 x(66)#66
      + 698 x(67)#67 + 189 x(68)#68 + 863 x(69)#69 + 433 x(70)#70 + 46 x(71)#71
      + 487 x(72)#72 + 472 x(73)#73 + 947 x(74)#74 + 169 x(75)#75
      + 544 x(76)#76 + 867 x(77)#77 + 314 x(78)#78 + 631 x(79)#79
      + 683 x(80)#80 + 539 x(81)#81 + 834 x(82)#82 + 534 x(83)#83
      + 298 x(84)#84 + 779 x(85)#85 + 705 x(86)#86 + 928 x(87)#87
      + 358 x(88)#88 + 510 x(89)#89 + 898 x(90)#90 + 286 x(91)#91
      + 166 x(92)#92 + 272 x(93)#93 + 239 x(94)#94 + 604 x(95)#95 + 9 x(96)#96
      + 920 x(97)#97 + 788 x(98)#98 + 673 x(99)#99 <= 12964
 c4:  908 x(0)#0 + 212 x(1)#1 + 115 x(2)#2 + 907 x(3)#3 + 394 x(4)#4
      + 275 x(5)#5 + 91 x(6)#6 + 780 x(7)#7 + 222 x(8)#8 + 616 x(9)#9
      + 728 x(10)#10 + 687 x(11)#11 + 954 x(12)#12 + 580 x(13)#13
      + 273 x(14)#14 + 49 x(15)#15 + 381 x(16)#16 + 288 x(17)#17 + 980 x(18)#18
      + 879 x(19)#19 + 974 x(20)#20 + 77 x(21)#21 + 41 x(22)#22 + 931 x(23)#23
      + 771 x(24)#24 + 579 x(25)#25 + 257 x(26)#26 + 334 x(27)#27 + 48 x(28)#28
      + 348 x(29)#29 + 556 x(30)#30 + 220 x(31)#31 + 424 x(32)#32
      + 910 x(33)#33 + 85 x(34)#34 + 874 x(35)#35 + 277 x(36)#36 + 90 x(37)#37
      + 839 x(38)#38 + 745 x(39)#39 + 512 x(40)#40 + 569 x(41)#41
      + 148 x(42)#42 + 936 x(43)#43 + 78 x(44)#44 + 567 x(45)#45 + 89 x(46)#46
      + 43 x(47)#47 + 841 x(48)#48 + 734 x(49)#49 + 283 x(50)#50 + 197 x(51)#51
      + 730 x(52)#52 + 187 x(53)#53 + 368 x(54)#54 + 94 x(55)#55 + 463 x(56)#56
      + 391 x(57)#57 + 469 x(58)#58 + 492 x(59)#59 + 913 x(60)#60
      + 533 x(61)#61 + 259 x(62)#62 + 803 x(63)#63 + 513 x(64)#64
      + 462 x(65)#65 + 8 x(66)#66 + 557 x(67)#67 + 832 x(68)#68 + 678 x(69)#69
      + 359 x(70)#70 + 616 x(71)#71 + 324 x(72)#72 + 924 x(73)#73 + 15 x(74)#74
      + 978 x(75)#75 + 713 x(76)#76 + 861 x(77)#77 + 444 x(78)#78
      + 429 x(79)#79 + 70 x(80)#80 + 821 x(81)#81 + 104 x(82)#82 + 746 x(83)#83
      + 514 x(84)#84 + 378 x(85)#85 + 143 x(86)#86 + 622 x(87)#87
      + 690 x(88)#88 + 489 x(89)#89 + 60 x(90)#90 + 784 x(91)#91 + 68 x(92)#92
      + 461 x(93)#93 + 71 x(94)#94 + 550 x(95)#95 + 488 x(96)#96 + 3 x(97)#97
      + 268 x(98)#98 + 538 x(99)#99 <= 11745
 c5:  979 x(0)#0 + 583 x(1)#1 + 10 x(2)#2 + 768 x(3)#3 + 411 x(4)#4 + 52 x(5)#5
      + 184 x(6)#6 + 85 x(7)#7 + 203 x(8)#8 + 373 x(9)#9 + 296 x(10)#10
      + 478 x(11)#11 + 300 x(12)#12 + 726 x(13)#13 + 880 x(14)#14
      + 830 x(15)#15 + 207 x(16)#16 + 202 x(17)#17 + 893 x(18)#18
      + 957 x(19)#19 + 508 x(20)#20 + 595 x(21)#21 + 790 x(22)#22
      + 816 x(23)#23 + 505 x(24)#24 + 435 x(25)#25 + 897 x(26)#26
      + 341 x(27)#27 + 732 x(28)#28 + 678 x(29)#29 + 288 x(30)#30 + 75 x(31)#31
      + 559 x(32)#32 + 131 x(33)#33 + 721 x(34)#34 + 707 x(35)#35
      + 598 x(36)#36 + 22 x(37)#37 + 857 x(38)#38 + 272 x(39)#39 + 346 x(40)#40
      + 263 x(41)#41 + 798 x(42)#42 + 288 x(43)#43 + 67 x(44)#44 + 721 x(45)#45
      + 630 x(46)#46 + 960 x(47)#47 + 143 x(48)#48 + 762 x(49)#49
      + 643 x(50)#50 + 130 x(51)#51 + 509 x(52)#52 + 829 x(53)#53 + 67 x(54)#54
      + 245 x(55)#55 + 832 x(56)#56 + 312 x(57)#57 + 977 x(58)#58
      + 256 x(59)#59 + 933 x(60)#60 + 958 x(61)#61 + 981 x(62)#62
      + 238 x(63)#63 + 331 x(64)#64 + 972 x(65)#65 + 148 x(66)#66
      + 528 x(67)#67 + 244 x(68)#68 + 5 x(69)#69 + 184 x(70)#70 + 997 x(71)#71
      + 631 x(72)#72 + 317 x(73)#73 + 901 x(74)#74 + 314 x(75)#75
      + 515 x(76)#76 + 12 x(77)#77 + 785 x(78)#78 + 930 x(79)#79 + 44 x(80)#80
      + 714 x(81)#81 + 448 x(82)#82 + 300 x(83)#83 + 590 x(84)#84
      + 709 x(85)#85 + 714 x(86)#86 + 399 x(87)#87 + 418 x(88)#88
      + 195 x(89)#89 + 974 x(90)#90 + 663 x(91)#91 + 155 x(92)#92
      + 787 x(93)#93 + 299 x(94)#94 + 4 x(95)#95 + 47 x(96)#96 + 770 x(97)#97
      + 211 x(98)#98 + 918 x(99)#99 <= 12501
 c6:  549 x(0)#0 + 638 x(1)#1 + 357 x(2)#2 + 763 x(3)#3 + 3 x(4)#4 + 492 x(5)#5
      + 822 x(6)#6 + 140 x(7)#7 + 325 x(8)#8 + 978 x(9)#9 + 888 x(10)#10
      + 971 x(11)#11 + 157 x(12)#12 + 499 x(13)#13 + 862 x(14)#14
      + 453 x(15)#15 + 22 x(16)#16 + 694 x(17)#17 + 132 x(18)#18 + 119 x(19)#19
      + 550 x(20)#20 + 509 x(21)#21 + 353 x(22)#22 + 57 x(23)#23 + 230 x(24)#24
      + 206 x(25)#25 + 609 x(26)#26 + 93 x(27)#27 + 147 x(28)#28 + 204 x(29)#29
      + 325 x(30)#30 + 159 x(31)#31 + 322 x(32)#32 + 427 x(33)#33
      + 290 x(34)#34 + 745 x(35)#35 + 93 x(36)#36 + 910 x(37)#37 + 505 x(38)#38
      + 406 x(39)#39 + 16 x(40)#40 + 160 x(41)#41 + 899 x(42)#42 + 290 x(43)#43
      + 882 x(44)#44 + 572 x(45)#45 + 163 x(46)#46 + 699 x(47)#47 + 76 x(48)#48
      + 406 x(49)#49 + 673 x(50)#50 + 451 x(51)#51 + 436 x(52)#52
      + 693 x(53)#53 + 74 x(54)#54 + 760 x(55)#55 + 830 x(56)#56 + 263 x(57)#57
      + 928 x(58)#58 + 737 x(59)#59 + 223 x(60)#60 + 43 x(61)#61 + 939 x(62)#62
      + 657 x(63)#63 + 369 x(64)#64 + 348 x(65)#65 + 469 x(66)#66
      + 865 x(67)#67 + 989 x(68)#68 + 866 x(69)#69 + 926 x(70)#70
      + 647 x(71)#71 + 644 x(72)#72 + 40 x(73)#73 + 124 x(74)#74 + 73 x(75)#75
      + 772 x(76)#76 + 478 x(77)#77 + 431 x(78)#78 + 207 x(79)#79
      + 403 x(80)#80 + 101 x(81)#81 + 264 x(82)#82 + 420 x(83)#83
      + 508 x(84)#84 + 508 x(85)#85 + 128 x(86)#86 + 986 x(87)#87
      + 700 x(88)#88 + 333 x(89)#89 + 152 x(90)#90 + 840 x(91)#91
      + 627 x(92)#92 + 70 x(93)#93 + 996 x(94)#94 + 413 x(95)#95 + 644 x(96)#96
      + 240 x(97)#97 + 30 x(98)#98 + 250 x(99)#99 <= 11434
 c7:  467 x(0)#0 + 513 x(1)#1 + 324 x(2)#2 + 225 x(3)#3 + 105 x(4)#4
      + 194 x(5)#5 + 281 x(6)#6 + 14 x(7)#7 + 673 x(8)#8 + 240 x(9)#9
      + 244 x(10)#10 + 42 x(11)#11 + 952 x(12)#12 + 739 x(13)#13 + 482 x(14)#14
      + 562 x(15)#15 + 654 x(16)#16 + 961 x(17)#17 + 468 x(18)#18
      + 777 x(19)#19 + 887 x(20)#20 + 496 x(21)#21 + 57 x(22)#22 + 818 x(23)#23
      + 864 x(24)#24 + 85 x(25)#25 + 937 x(26)#26 + 788 x(27)#27 + 330 x(28)#28
      + 111 x(29)#29 + 759 x(30)#30 + 539 x(31)#31 + 224 x(32)#32
      + 786 x(33)#33 + 668 x(34)#34 + 858 x(35)#35 + 904 x(36)#36
      + 669 x(37)#37 + 435 x(38)#38 + 251 x(39)#39 + 283 x(40)#40
      + 971 x(41)#41 + 440 x(42)#42 + 858 x(43)#43 + 980 x(44)#44
      + 145 x(45)#45 + 551 x(46)#46 + 317 x(47)#47 + 683 x(48)#48
      + 148 x(49)#49 + 846 x(50)#50 + 763 x(51)#51 + 279 x(52)#52
      + 768 x(53)#53 + 762 x(54)#54 + 63 x(55)#55 + 893 x(56)#56 + 977 x(57)#57
      + 234 x(58)#58 + 964 x(59)#59 + 523 x(60)#60 + 674 x(61)#61
      + 318 x(62)#62 + 581 x(63)#63 + 946 x(64)#64 + 638 x(65)#65
      + 957 x(66)#66 + 628 x(67)#67 + 311 x(68)#68 + 913 x(69)#69 + 65 x(70)#70
      + 894 x(71)#71 + 57 x(72)#72 + 30 x(73)#73 + 820 x(74)#74 + 136 x(75)#75
      + 352 x(76)#76 + 615 x(77)#77 + 574 x(78)#78 + 940 x(79)#79
      + 858 x(80)#80 + 414 x(81)#81 + 277 x(82)#82 + 938 x(83)#83
      + 836 x(84)#84 + 263 x(85)#85 + 572 x(86)#86 + 943 x(87)#87
      + 594 x(88)#88 + 113 x(89)#89 + 855 x(90)#90 + 22 x(91)#91 + 87 x(92)#92
      + 272 x(93)#93 + 715 x(94)#94 + 433 x(95)#95 + 243 x(96)#96
      + 340 x(97)#97 + 689 x(98)#98 + 437 x(99)#99 <= 13295
 c8:  208 x(0)#0 + 543 x(1)#1 + 532 x(2)#2 + 568 x(3)#3 + 603 x(4)#4
      + 865 x(5)#5 + 751 x(6)#6 + 20 x(7)#7 + 699 x(8)#8 + 76 x(9)#9
      + 1000 x(10)#10 + 593 x(11)#11 + 899 x(12)#12 + 423 x(13)#13
      + 738 x(14)#14 + 420 x(15)#15 + 822 x(16)#16 + 330 x(17)#17
      + 670 x(18)#18 + 266 x(19)#19 + 375 x(20)#20 + 718 x(21)#21
      + 495 x(22)#22 + 330 x(23)#23 + 958 x(24)#24 + 418 x(25)#25
      + 376 x(26)#26 + 893 x(27)#27 + 410 x(28)#28 + 413 x(29)#29
      + 854 x(30)#30 + 550 x(31)#31 + 242 x(32)#32 + 574 x(33)#33
      + 308 x(34)#34 + 802 x(35)#35 + 753 x(36)#36 + 405 x(37)#37 + 98 x(38)#38
      + 942 x(39)#39 + 261 x(40)#40 + 624 x(41)#41 + 461 x(42)#42
      + 179 x(43)#43 + 678 x(44)#44 + 85 x(45)#45 + 237 x(46)#46 + 154 x(47)#47
      + 342 x(48)#48 + 419 x(49)#49 + 585 x(50)#50 + 119 x(51)#51
      + 725 x(52)#52 + 263 x(53)#53 + 419 x(54)#54 + 152 x(55)#55
      + 913 x(56)#56 + 791 x(57)#57 + 371 x(58)#58 + 274 x(59)#59
      + 200 x(60)#60 + 464 x(61)#61 + 244 x(62)#62 + 128 x(63)#63
      + 437 x(64)#64 + 959 x(65)#65 + 513 x(66)#66 + 938 x(67)#67
      + 796 x(68)#68 + 665 x(69)#69 + 453 x(70)#70 + 694 x(71)#71
      + 350 x(72)#72 + 756 x(73)#73 + 469 x(74)#74 + 114 x(75)#75
      + 827 x(76)#76 + 634 x(77)#77 + 814 x(78)#78 + 677 x(79)#79 + 35 x(80)#80
      + 450 x(81)#81 + 261 x(82)#82 + 32 x(83)#83 + 658 x(84)#84 + 236 x(85)#85
      + 851 x(86)#86 + 112 x(87)#87 + 31 x(88)#88 + 471 x(89)#89 + 885 x(90)#90
      + 24 x(91)#91 + 819 x(92)#92 + 581 x(93)#93 + 381 x(94)#94 + 385 x(95)#95
      + 354 x(96)#96 + 281 x(97)#97 + 146 x(98)#98 + 761 x(99)#99 <= 12220
 c9:  171 x(0)#0 + 678 x(1)#1 + 207 x(2)#2 + 964 x(3)#3 + 582 x(4)#4
      + 671 x(5)#5 + 879 x(6)#6 + 253 x(7)#7 + 130 x(8)#8 + 854 x(9)#9
      + 468 x(10)#10 + 651 x(11)#11 + 381 x(12)#12 + 741 x(13)#13
      + 754 x(14)#14 + 276 x(15)#15 + 880 x(16)#16 + 214 x(17)#17 + 46 x(18)#18
      + 426 x(19)#19 + 464 x(20)#20 + 243 x(21)#21 + 981 x(22)#22
      + 175 x(23)#23 + 397 x(24)#24 + 709 x(25)#25 + 511 x(26)#26
      + 130 x(27)#27 + 391 x(28)#28 + 61 x(29)#29 + 856 x(30)#30 + 727 x(31)#31
      + 541 x(32)#32 + 27 x(33)#33 + 714 x(34)#34 + 728 x(35)#35 + 646 x(36)#36
      + 434 x(37)#37 + 196 x(38)#38 + 198 x(39)#39 + 60 x(40)#40 + 776 x(41)#41
      + 768 x(42)#42 + 333 x(43)#43 + 468 x(44)#44 + 479 x(45)#45
      + 535 x(46)#46 + 98 x(47)#47 + 478 x(48)#48 + 557 x(49)#49 + 757 x(50)#50
      + 366 x(51)#51 + 204 x(52)#52 + 987 x(53)#53 + 604 x(54)#54
      + 895 x(55)#55 + 284 x(56)#56 + 271 x(57)#57 + 218 x(58)#58 + 67 x(59)#59
      + 22 x(60)#60 + 986 x(61)#61 + 402 x(62)#62 + 876 x(63)#63 + 29 x(64)#64
      + 313 x(65)#65 + 355 x(66)#66 + 394 x(67)#67 + 69 x(68)#68 + 812 x(69)#69
      + 571 x(70)#70 + 987 x(71)#71 + 312 x(72)#72 + 521 x(73)#73
      + 241 x(74)#74 + 571 x(75)#75 + 384 x(76)#76 + 86 x(77)#77 + 421 x(78)#78
      + 956 x(79)#79 + 68 x(80)#80 + 872 x(81)#81 + 1000 x(82)#82
      + 635 x(83)#83 + 547 x(84)#84 + 822 x(85)#85 + 114 x(86)#86
      + 400 x(87)#87 + 754 x(88)#88 + 12 x(89)#89 + 512 x(90)#90 + 956 x(91)#91
      + 22 x(92)#92 + 144 x(93)#93 + 658 x(94)#94 + 616 x(95)#95 + 904 x(96)#96
      + 687 x(97)#97 + 549 x(98)#98 + 889 x(99)#99 <= 12257
 c10: 147 x(0)#0 + 206 x(1)#1 + 37 x(2)#2 + 710 x(3)#3 + 38 x(4)#4 + 456 x(5)#5
      + 680 x(6)#6 + 573 x(7)#7 + 594 x(8)#8 + 850 x(9)#9 + 876 x(10)#10
      + 816 x(11)#11 + 418 x(12)#12 + 855 x(13)#13 + 518 x(14)#14
      + 227 x(15)#15 + 326 x(16)#16 + 732 x(17)#17 + 447 x(18)#18
      + 810 x(19)#19 + 534 x(20)#20 + 459 x(21)#21 + 967 x(22)#22
      + 453 x(23)#23 + 239 x(24)#24 + 792 x(25)#25 + 446 x(26)#26
      + 171 x(27)#27 + 431 x(28)#28 + 622 x(29)#29 + 670 x(30)#30
      + 271 x(31)#31 + 552 x(32)#32 + 719 x(33)#33 + 506 x(34)#34
      + 357 x(35)#35 + 774 x(36)#36 + 733 x(37)#37 + 909 x(38)#38
      + 907 x(39)#39 + 96 x(40)#40 + 995 x(41)#41 + 243 x(42)#42 + 87 x(43)#43
      + 985 x(44)#44 + 219 x(45)#45 + 392 x(46)#46 + 261 x(47)#47
      + 284 x(48)#48 + 638 x(49)#49 + 722 x(50)#50 + 293 x(51)#51 + 41 x(52)#52
      + 693 x(53)#53 + 887 x(54)#54 + 270 x(55)#55 + 361 x(56)#56
      + 354 x(57)#57 + 398 x(58)#58 + 437 x(59)#59 + 795 x(60)#60 + 69 x(61)#61
      + 127 x(62)#62 + 491 x(63)#63 + 28 x(64)#64 + 87 x(65)#65 + 2 x(66)#66
      + 433 x(67)#67 + 817 x(68)#68 + 593 x(69)#69 + 480 x(70)#70
      + 733 x(71)#71 + 500 x(72)#72 + 378 x(73)#73 + 283 x(74)#74
      + 922 x(75)#75 + 680 x(76)#76 + 691 x(77)#77 + 358 x(78)#78
      + 216 x(79)#79 + 629 x(80)#80 + 627 x(81)#81 + 404 x(82)#82
      + 457 x(83)#83 + 145 x(84)#84 + 41 x(85)#85 + 610 x(86)#86 + 14 x(87)#87
      + 613 x(88)#88 + 188 x(89)#89 + 332 x(90)#90 + 285 x(91)#91
      + 403 x(92)#92 + 68 x(93)#93 + 360 x(94)#94 + 788 x(95)#95 + 88 x(96)#96
      + 215 x(97)#97 + 196 x(98)#98 + 186 x(99)#99 <= 11454
Bounds
 0 <= x(0)#0 <= 1
 0 <= x(1)#1 <= 1
 0 <= x(2)#2 <= 1
 0 <= x(3)#3 <= 1
 0 <= x(4)#4 <= 1
 0 <= x(5)#5 <= 1
 0 <= x(6)#6 <= 1
 0 <= x(7)#7 <= 1
 0 <= x(8)#8 <= 1
 0 <= x(9)#9 <= 1
 0 <= x(10)#10 <= 1
 0 <= x(11)#11 <= 1
 0 <= x(12)#12 <= 1
 0 <= x(13)#13 <= 1
 0 <= x(14)#14 <= 1
 0 <= x(15)#15 <= 1
 0 <= x(16)#16 <= 1
 0 <= x(17)#17 <= 1
 0 <= x(18)#18 <= 1
 0 <= x(19)#19 <= 1
 0 <= x(20)#20 <= 1
 0 <= x(21)#21 <= 1
 0 <= x(22)#22 <= 1
 0 <= x(23)#23 <= 1
 0 <= x(24)#24 <= 1
 0 <= x(25)#25 <= 1
 0 <= x(26)#26 <= 1
 0 <= x(27)#27 <= 1
 0 <= x(28)#28 <= 1
 0 <= x(29)#29 <= 1
 0 <= x(30)#30 <= 1
 0 <= x(31)#31 <= 1
 0 <= x(32)#32 <= 1
 0 <= x(33)#33 <= 1
 0 <= x(34)#34 <= 1
 0 <= x(35)#35 <= 1
 0 <= x(36)#36 <= 1
 0 <= x(37)#37 <= 1
 0 <= x(38)#38 <= 1
 0 <= x(39)#39 <= 1
 0 <= x(40)#40 <= 1
 0 <= x(41)#41 <= 1
 0 <= x(42)#42 <= 1
 0 <= x(43)#43 <= 1
 0 <= x(44)#44 <= 1
 0 <= x(45)#45 <= 1
 0 <= x(46)#46 <= 1
 0 <= x(47)#47 <= 1
 0 <= x(48)#48 <= 1
 0 <= x(49)#49 <= 1
 0 <= x(50)#50 <= 1
 0 <= x(51)#51 <= 1
 0 <= x(52)#52 <= 1
 0 <= x(53)#53 <= 1
 0 <= x(54)#54 <= 1
 0 <= x(55)#55 <= 1
 0 <= x(56)#56 <= 1
 0 <= x(57)#57 <= 1
 0 <= x(58)#58 <= 1
 0 <= x(59)#59 <= 1
 0 <= x(60)#60 <= 1
 0 <= x(61)#61 <= 1
 0 <= x(62)#62 <= 1
 0 <= x(63)#63 <= 1
 0 <= x(64)#64 <= 1
 0 <= x(65)#65 <= 1
 0 <= x(66)#66 <= 1
 0 <= x(67)#67 <= 1
 0 <= x(68)#68 <= 1
 0 <= x(69)#69 <= 1
 0 <= x(70)#70 <= 1
 0 <= x(71)#71 <= 1
 0 <= x(72)#72 <= 1
 0 <= x(73)#73 <= 1
 0 <= x(74)#74 <= 1
 0 <= x(75)#75 <= 1
 0 <= x(76)#76 <= 1
 0 <= x(77)#77 <= 1
 0 <= x(78)#78 <= 1
 0 <= x(79)#79 <= 1
 0 <= x(80)#80 <= 1
 0 <= x(81)#81 <= 1
 0 <= x(82)#82 <= 1
 0 <= x(83)#83 <= 1
 0 <= x(84)#84 <= 1
 0 <= x(85)#85 <= 1
 0 <= x(86)#86 <= 1
 0 <= x(87)#87 <= 1
 0 <= x(88)#88 <= 1
 0 <= x(89)#89 <= 1
 0 <= x(90)#90 <= 1
 0 <= x(91)#91 <= 1
 0 <= x(92)#92 <= 1
 0 <= x(93)#93 <= 1
 0 <= x(94)#94 <= 1
 0 <= x(95)#95 <= 1
 0 <= x(96)#96 <= 1
 0 <= x(97)#97 <= 1
 0 <= x(98)#98 <= 1
 0 <= x(99)#99 <= 1
Generals
 x(0)#0  x(1)#1  x(2)#2  x(3)#3  x(4)#4  x(5)#5  x(6)#6  x(7)#7  x(8)#8 
 x(9)#9  x(10)#10  x(11)#11  x(12)#12  x(13)#13  x(14)#14  x(15)#15  x(16)#16 
 x(17)#17  x(18)#18  x(19)#19  x(20)#20  x(21)#21  x(22)#22  x(23)#23 
 x(24)#24  x(25)#25  x(26)#26  x(27)#27  x(28)#28  x(29)#29  x(30)#30 
 x(31)#31  x(32)#32  x(33)#33  x(34)#34  x(35)#35  x(36)#36  x(37)#37 
 x(38)#38  x(39)#39  x(40)#40  x(41)#41  x(42)#42  x(43)#43  x(44)#44 
 x(45)#45  x(46)#46  x(47)#47  x(48)#48  x(49)#49  x(50)#50  x(51)#51 
 x(52)#52  x(53)#53  x(54)#54  x(55)#55  x(56)#56  x(57)#57  x(58)#58 
 x(59)#59  x(60)#60  x(61)#61  x(62)#62  x(63)#63  x(64)#64  x(65)#65 
 x(66)#66  x(67)#67  x(68)#68  x(69)#69  x(70)#70  x(71)#71  x(72)#72 
 x(73)#73  x(74)#74  x(75)#75  x(76)#76  x(77)#77  x(78)#78  x(79)#79 
 x(80)#80  x(81)#81  x(82)#82  x(83)#83  x(84)#84  x(85)#85  x(86)#86 
 x(87)#87  x(88)#88  x(89)#89  x(90)#90  x(91)#91  x(92)#92  x(93)#93 
 x(94)#94  x(95)#95  x(96)#96  x(97)#97  x(98)#98  x(99)#99 
End
